40
    80    57    81    87    75    84    97     9    88    69    90    36    83     9    75    30    48    53    43    56     3     7    64    81    94    25    86    76    96    20    35    14    11    52    17    74    72    39    13    35
     8     3     6     8     8     1     8     7     2     1     8     1     6     1     7     7     2     9     6     5     1     5     3     7     3     8     8     5     7    10     4     1     7     2     8     9     1     9     1     4
  1406  2620  1708   868  2449  1982  2382  2807  2593  1857   767  2280  2118   941  2734  1902  1750  2773  2456   850  2453  2152  2229  2372  1984   750   902   734  1181  2180   710  1712  2678  1651  2201   882  2048  2665  2413  1948
